
Gurobi 7.5.2 (linux64) logging started Sat Jun 23 16:43:14 2018

Changed value of parameter LogFile to result/ilp/simNo_9-n_100-m_40-s_4-minVAF_0.05-cov_2000-k_1-fn_0.25-fp_0.0001-na_0.15.ILP.gurobiSolverLog
   Prev: gurobi.log  Default: 
Changed value of parameter TimeLimit to 86400.0
   Prev: 1e+100  Min: 0.0  Max: 1e+100  Default: 1e+100
Optimize a model with 1265601 rows, 330440 columns and 3489120 nonzeros
Variable types: 0 continuous, 330440 integer (330440 binary)
Coefficient statistics:
  Matrix range     [3e-03, 3e+00]
  Objective range  [1e+00, 2e+01]
  Bounds range     [1e+00, 1e+00]
  RHS range        [3e-01, 2e+00]
Found heuristic solution: objective -11934.16296
Presolve removed 337651 rows and 214559 columns (presolve time = 6s) ...
Presolve removed 338154 rows and 214559 columns (presolve time = 10s) ...
Presolve removed 339154 rows and 214559 columns (presolve time = 15s) ...
Presolve removed 339154 rows and 214559 columns (presolve time = 21s) ...
Presolve removed 339154 rows and 214559 columns (presolve time = 25s) ...
Presolve removed 339154 rows and 214559 columns (presolve time = 30s) ...
Presolve removed 339154 rows and 214559 columns (presolve time = 38s) ...
Presolve removed 339154 rows and 214559 columns
Presolve time: 39.75s
Presolved: 926447 rows, 115881 columns, 2570505 nonzeros
Variable types: 0 continuous, 115881 integer (115881 binary)
Presolved: 115881 rows, 1042328 columns, 2686386 nonzeros

Presolve removed 115881 rows and 1042328 columns

Root simplex log...

Iteration    Objective       Primal Inf.    Dual Inf.      Time
       0    2.2383647e+01   0.000000e+00   7.933800e+04     51s
   15048   -1.7970589e+02   0.000000e+00   2.261664e+06     55s
   26508   -1.9978803e+02   0.000000e+00   1.322455e+06     60s
   37968   -2.2976544e+02   0.000000e+00   2.229213e+05     65s
   48855   -2.5068918e+02   0.000000e+00   5.446045e+05     70s
   62034   -2.7052729e+02   0.000000e+00   1.880650e+05     75s
   74640   -2.8698609e+02   0.000000e+00   6.121000e+03     80s
   82551   -2.9767948e+02   0.000000e+00   0.000000e+00     84s
   82551   -2.9767948e+02   0.000000e+00   0.000000e+00     86s

Root relaxation: objective -2.976795e+02, 82551 iterations, 42.57 seconds
Total elapsed time = 151.87s
Total elapsed time = 240.01s
Total elapsed time = 343.39s
Total elapsed time = 461.57s

    Nodes    |    Current Node    |     Objective Bounds      |     Work
 Expl Unexpl |  Obj  Depth IntInf | Incumbent    BestBd   Gap | It/Node Time

     0     0 -297.67948    0 2196 -11934.163 -297.67948  97.5%     -  472s
H    0     0                    -364.1411178 -297.67948  18.3%     -  637s
     0     0 -300.26096    0 2231 -364.14112 -300.26096  17.5%     -  836s
     0     0 -300.26096    0 2231 -364.14112 -300.26096  17.5%     - 1126s
     0     0 -304.09720    0 2242 -364.14112 -304.09720  16.5%     - 1338s
H    0     0                    -361.0187853 -304.09720  15.8%     - 1496s
     0     0 -304.12498    0 2276 -361.01879 -304.12498  15.8%     - 1603s
     0     0 -305.99825    0 2230 -361.01879 -305.99825  15.2%     - 1793s
     0     0 -306.50563    0 2229 -361.01879 -306.50563  15.1%     - 2110s
     0     0 -306.50563    0 2233 -361.01879 -306.50563  15.1%     - 2128s
     0     0 -307.87002    0 2244 -361.01879 -307.87002  14.7%     - 2389s
     0     0 -308.13022    0 2240 -361.01879 -308.13022  14.6%     - 2656s
     0     0 -308.39041    0 2246 -361.01879 -308.39041  14.6%     - 2673s
     0     0 -309.43119    0 2253 -361.01879 -309.43119  14.3%     - 2747s
     0     0 -309.43119    0 2244 -361.01879 -309.43119  14.3%     - 2919s
     0     0 -310.74947    0 2213 -361.01879 -310.74947  13.9%     - 3131s
     0     0 -310.88914    0 2256 -361.01879 -310.88914  13.9%     - 3367s
     0     0 -310.91781    0 2268 -361.01879 -310.91781  13.9%     - 3379s
     0     0 -310.94647    0 2235 -361.01879 -310.94647  13.9%     - 3394s
     0     0 -310.95245    0 2238 -361.01879 -310.95245  13.9%     - 3411s
     0     0 -310.95245    0 2236 -361.01879 -310.95245  13.9%     - 3421s
     0     0 -312.46656    0 2217 -361.01879 -312.46656  13.4%     - 3490s
     0     0 -312.46656    0 2222 -361.01879 -312.46656  13.4%     - 3653s
     0     0 -313.16177    0 2313 -361.01879 -313.16177  13.3%     - 3732s
     0     0 -313.19685    0 2272 -361.01879 -313.19685  13.2%     - 4287s
     0     0 -313.22631    0 2282 -361.01879 -313.22631  13.2%     - 4302s
     0     0 -313.27587    0 2280 -361.01879 -313.27587  13.2%     - 4318s
     0     0 -313.30837    0 2291 -361.01879 -313.30837  13.2%     - 4334s
     0     0 -313.31158    0 2286 -361.01879 -313.31158  13.2%     - 4350s
     0     0 -313.31158    0 2287 -361.01879 -313.31158  13.2%     - 4360s
     0     0 -314.87448    0 2304 -361.01879 -314.87448  12.8%     - 4393s
     0     0 -314.98854    0 2298 -361.01879 -314.98854  12.8%     - 4705s
     0     0 -314.98854    0 2302 -361.01879 -314.98854  12.8%     - 4714s
     0     0 -315.85971    0 2243 -361.01879 -315.85971  12.5%     - 4758s
     0     0 -316.02564    0 2230 -361.01879 -316.02564  12.5%     - 4946s
     0     0 -316.03818    0 2226 -361.01879 -316.03818  12.5%     - 4965s
     0     0 -316.07539    0 2266 -361.01879 -316.07539  12.4%     - 4977s
     0     0 -316.11875    0 2270 -361.01879 -316.11875  12.4%     - 4990s
     0     0 -316.12222    0 2276 -361.01879 -316.12222  12.4%     - 4999s
     0     0 -316.12222    0 2273 -361.01879 -316.12222  12.4%     - 5009s
     0     0 -316.84875    0 2312 -361.01879 -316.84875  12.2%     - 5054s
     0     0 -317.09725    0 2321 -361.01879 -317.09725  12.2%     - 5341s
     0     0 -317.10571    0 2324 -361.01879 -317.10571  12.2%     - 5354s
     0     0 -317.10608    0 2334 -361.01879 -317.10608  12.2%     - 5365s
     0     0 -318.23008    0 2305 -361.01879 -318.23008  11.9%     - 5409s
     0     0 -318.49459    0 2312 -361.01879 -318.49459  11.8%     - 5612s
     0     0 -318.59937    0 2309 -361.01879 -318.59937  11.7%     - 5630s
     0     0 -318.61203    0 2313 -361.01879 -318.61203  11.7%     - 5642s
     0     0 -318.61203    0 2319 -361.01879 -318.61203  11.7%     - 5652s
     0     0 -319.78159    0 2274 -361.01879 -319.78159  11.4%     - 5709s
     0     0 -319.88453    0 2237 -361.01879 -319.88453  11.4%     - 6031s
     0     0 -319.88453    0 2240 -361.01879 -319.88453  11.4%     - 6042s
     0     0 -320.93832    0 2257 -361.01879 -320.93832  11.1%     - 6124s
     0     0 -320.95929    0 2251 -361.01879 -320.95929  11.1%     - 6277s
     0     0 -320.95929    0 2257 -361.01879 -320.95929  11.1%     - 6291s
     0     0 -321.70369    0 2269 -361.01879 -321.70369  10.9%     - 6353s
     0     0 -321.87333    0 2308 -361.01879 -321.87333  10.8%     - 6572s
     0     0 -321.97708    0 2302 -361.01879 -321.97708  10.8%     - 6606s
     0     0 -322.01967    0 2316 -361.01879 -322.01967  10.8%     - 6625s
     0     0 -322.01967    0 2321 -361.01879 -322.01967  10.8%     - 6634s
     0     0 -323.41454    0 2283 -361.01879 -323.41454  10.4%     - 6734s
     0     0 -323.42719    0 2298 -361.01879 -323.42719  10.4%     - 6999s
     0     0 -323.43010    0 2298 -361.01879 -323.43010  10.4%     - 7011s
     0     0 -323.43010    0 2302 -361.01879 -323.43010  10.4%     - 7021s
     0     0 -323.54034    0 2296 -361.01879 -323.54034  10.4%     - 7048s
     0     0 -323.83733    0 2303 -361.01879 -323.83733  10.3%     - 7227s
     0     0 -323.87103    0 2305 -361.01879 -323.87103  10.3%     - 7242s
     0     0 -323.88369    0 2305 -361.01879 -323.88369  10.3%     - 7254s
     0     0 -323.88719    0 2311 -361.01879 -323.88719  10.3%     - 7267s
     0     0 -323.88862    0 2307 -361.01879 -323.88862  10.3%     - 7275s
     0     0 -324.40408    0 2301 -361.01879 -324.40408  10.1%     - 7312s
     0     0 -324.43583    0 2307 -361.01879 -324.43583  10.1%     - 7567s
     0     0 -324.43908    0 2321 -361.01879 -324.43908  10.1%     - 7576s
     0     0 -324.43934    0 2323 -361.01879 -324.43934  10.1%     - 7584s
     0     0 -325.67117    0 2299 -361.01879 -325.67117  9.79%     - 7644s
     0     0 -325.96463    0 2313 -361.01879 -325.96463  9.71%     - 7806s
     0     0 -326.14816    0 2256 -361.01879 -326.14816  9.66%     - 7823s
     0     0 -326.15369    0 2269 -361.01879 -326.15369  9.66%     - 7833s
     0     0 -326.15874    0 2267 -361.01879 -326.15874  9.66%     - 7842s
     0     0 -326.16556    0 2268 -361.01879 -326.16556  9.65%     - 7851s
     0     0 -326.16621    0 2269 -361.01879 -326.16621  9.65%     - 7859s
     0     0 -327.85001    0 2296 -361.01879 -327.85001  9.19%     - 7958s
     0     0 -328.04160    0 2434 -361.01879 -328.04160  9.13%     - 8136s
     0     0 -328.06222    0 2325 -361.01879 -328.06222  9.13%     - 8161s
     0     0 -328.16865    0 2317 -361.01879 -328.16865  9.10%     - 8179s
     0     0 -328.17176    0 2438 -361.01879 -328.17176  9.10%     - 8190s
     0     0 -328.18211    0 2448 -361.01879 -328.18211  9.10%     - 8199s
     0     0 -328.19517    0 2450 -361.01879 -328.19517  9.09%     - 8209s
     0     0 -328.20924    0 2454 -361.01879 -328.20924  9.09%     - 8218s
     0     0 -328.21204    0 2456 -361.01879 -328.21204  9.09%     - 8227s
     0     0 -329.86143    0 2460 -361.01879 -329.86143  8.63%     - 8363s
     0     0 -329.92764    0 2457 -361.01879 -329.92764  8.61%     - 8697s
     0     0 -329.93562    0 2337 -361.01879 -329.93562  8.61%     - 8707s
     0     0 -329.93967    0 2458 -361.01879 -329.93967  8.61%     - 8717s
     0     0 -329.94102    0 2461 -361.01879 -329.94102  8.61%     - 8726s
     0     0 -330.01123    0 2334 -361.01879 -330.01123  8.59%     - 8751s
     0     0 -330.11975    0 2339 -361.01879 -330.11975  8.56%     - 8941s
     0     0 -330.14764    0 2460 -361.01879 -330.14764  8.55%     - 8952s
     0     0 -330.17700    0 2352 -361.01879 -330.17700  8.54%     - 8963s
     0     0 -330.19104    0 2353 -361.01879 -330.19104  8.54%     - 8973s
     0     0 -330.20184    0 2348 -361.01879 -330.20184  8.54%     - 8983s
     0     0 -330.20807    0 2346 -361.01879 -330.20807  8.53%     - 8994s
     0     0 -330.20862    0 2349 -361.01879 -330.20862  8.53%     - 9002s
     0     0 -330.81839    0 2342 -361.01879 -330.81839  8.37%     - 9039s
     0     0 -330.90005    0 2345 -361.01879 -330.90005  8.34%     - 9257s
     0     0 -330.93071    0 2350 -361.01879 -330.93071  8.33%     - 9271s
     0     0 -330.94097    0 2353 -361.01879 -330.94097  8.33%     - 9280s
     0     0 -330.94631    0 2355 -361.01879 -330.94631  8.33%     - 9290s
     0     0 -330.94685    0 2359 -361.01879 -330.94685  8.33%     - 9298s
     0     0 -331.35587    0 2452 -361.01879 -331.35587  8.22%     - 9378s
     0     0 -331.53191    0 2445 -361.01879 -331.53191  8.17%     - 9624s
     0     0 -331.54576    0 2452 -361.01879 -331.54576  8.16%     - 9636s
     0     0 -331.55166    0 2454 -361.01879 -331.55166  8.16%     - 9647s
     0     0 -331.57011    0 2467 -361.01879 -331.57011  8.16%     - 9659s
     0     0 -331.57295    0 2468 -361.01879 -331.57295  8.16%     - 9667s
     0     0 -332.23228    0 2320 -361.01879 -332.23228  7.97%     - 9703s
     0     0 -332.46459    0 2412 -361.01879 -332.46459  7.91%     - 9857s
     0     0 -332.50052    0 2458 -361.01879 -332.50052  7.90%     - 9874s
     0     0 -332.60248    0 2345 -361.01879 -332.60248  7.87%     - 9889s
     0     0 -332.62008    0 2339 -361.01879 -332.62008  7.87%     - 9900s
     0     0 -332.65051    0 2343 -361.01879 -332.65051  7.86%     - 9915s
     0     0 -332.65844    0 2345 -361.01879 -332.65844  7.86%     - 9926s
     0     0 -332.65871    0 2347 -361.01879 -332.65871  7.86%     - 9935s
     0     0 -332.98093    0 2440 -361.01879 -332.98093  7.77%     - 9972s
     0     0 -333.49050    0 2338 -361.01879 -333.49050  7.63%     - 10216s
     0     0 -333.58931    0 2343 -361.01879 -333.58931  7.60%     - 10252s
     0     0 -333.59123    0 2348 -361.01879 -333.59123  7.60%     - 10264s
     0     0 -334.33017    0 2349 -361.01879 -334.33017  7.39%     - 10362s
     0     0 -334.57252    0 2340 -361.01879 -334.57252  7.33%     - 10539s
     0     0 -334.59076    0 2342 -361.01879 -334.59076  7.32%     - 10554s
     0     0 -334.61329    0 2354 -361.01879 -334.61329  7.31%     - 10562s
     0     0 -334.61364    0 2357 -361.01879 -334.61364  7.31%     - 10571s
     0     0 -335.16589    0 2332 -361.01879 -335.16589  7.16%     - 10643s
     0     0 -335.28887    0 2355 -361.01879 -335.28887  7.13%     - 10878s
     0     0 -335.31855    0 2354 -361.01879 -335.31855  7.12%     - 10897s
     0     0 -335.34045    0 2353 -361.01879 -335.34045  7.11%     - 10912s
     0     0 -335.37695    0 2347 -361.01879 -335.37695  7.10%     - 10924s
     0     0 -335.38304    0 2351 -361.01879 -335.38304  7.10%     - 10936s
     0     0 -335.38615    0 2355 -361.01879 -335.38615  7.10%     - 10944s
     0     0 -335.47646    0 2346 -361.01879 -335.47646  7.08%     - 10973s
     0     0 -335.62210    0 2349 -361.01879 -335.62210  7.03%     - 11212s
     0     0 -335.68642    0 2360 -361.01879 -335.68642  7.02%     - 11224s
     0     0 -335.68713    0 2366 -361.01879 -335.68713  7.02%     - 11233s
     0     0 -336.00026    0 2360 -361.01879 -336.00026  6.93%     - 11287s
     0     0 -336.11354    0 2361 -361.01879 -336.11354  6.90%     - 11576s
     0     0 -336.13207    0 2362 -361.01879 -336.13207  6.89%     - 11588s
     0     0 -336.18282    0 2352 -361.01879 -336.18282  6.88%     - 11601s
     0     0 -336.18504    0 2368 -361.01879 -336.18504  6.88%     - 11611s
     0     0 -336.38653    0 2365 -361.01879 -336.38653  6.82%     - 11638s
     0     0 -336.46983    0 2352 -361.01879 -336.46983  6.80%     - 11853s
     0     0 -336.56411    0 2363 -361.01879 -336.56411  6.77%     - 11865s
     0     0 -336.58445    0 2366 -361.01879 -336.58445  6.77%     - 11874s
     0     0 -336.58691    0 2365 -361.01879 -336.58691  6.77%     - 11883s
     0     0 -336.70780    0 2362 -361.01879 -336.70780  6.73%     - 11910s
     0     0 -336.73568    0 2369 -361.01879 -336.73568  6.73%     - 12031s
     0     0 -336.74316    0 2365 -361.01879 -336.74316  6.72%     - 12043s
     0     0 -336.75165    0 2374 -361.01879 -336.75165  6.72%     - 12052s
     0     0 -336.75958    0 2380 -361.01879 -336.75958  6.72%     - 12063s
     0     0 -336.76175    0 2378 -361.01879 -336.76175  6.72%     - 12071s
     0     0 -337.13981    0 2353 -361.01879 -337.13981  6.61%     - 12102s
     0     0 -337.48907    0 2365 -361.01879 -337.48907  6.52%     - 12331s
     0     0 -337.53319    0 2367 -361.01879 -337.53319  6.51%     - 12345s
     0     0 -337.58846    0 2368 -361.01879 -337.58846  6.49%     - 12356s
     0     0 -337.60823    0 2372 -361.01879 -337.60823  6.48%     - 12366s
     0     0 -337.61403    0 2370 -361.01879 -337.61403  6.48%     - 12376s
     0     0 -337.61683    0 2376 -361.01879 -337.61683  6.48%     - 12383s
     0     0 -337.90752    0 2343 -361.01879 -337.90752  6.40%     - 12412s
     0     0 -338.08196    0 2358 -361.01879 -338.08196  6.35%     - 12535s
     0     0 -338.14148    0 2360 -361.01879 -338.14148  6.34%     - 12546s
     0     0 -338.17241    0 2359 -361.01879 -338.17241  6.33%     - 12557s
     0     0 -338.17522    0 2372 -361.01879 -338.17522  6.33%     - 12563s
     0     0 -338.64467    0 2279 -361.01879 -338.64467  6.20%     - 12600s
     0     0 -338.73715    0 2282 -361.01879 -338.73715  6.17%     - 12737s
     0     0 -338.80978    0 2282 -361.01879 -338.80978  6.15%     - 12748s
     0     0 -338.80978    0 2292 -361.01879 -338.80978  6.15%     - 12754s
     0     0 -339.05121    0 2277 -361.01879 -339.05121  6.08%     - 12786s
     0     0 -339.09590    0 2271 -361.01879 -339.09590  6.07%     - 12874s
     0     0 -339.14818    0 2276 -361.01879 -339.14818  6.06%     - 12885s
     0     0 -339.16503    0 2285 -361.01879 -339.16503  6.05%     - 12897s
     0     0 -339.17609    0 2291 -361.01879 -339.17609  6.05%     - 12907s
     0     0 -339.18123    0 2292 -361.01879 -339.18123  6.05%     - 12915s
     0     0 -339.18285    0 2293 -361.01879 -339.18285  6.05%     - 12924s
     0     0 -339.47062    0 2276 -361.01879 -339.47062  5.97%     - 12955s
     0     0 -339.66081    0 2281 -361.01879 -339.66081  5.92%     - 13067s
     0     0 -339.71720    0 2281 -361.01879 -339.71720  5.90%     - 13080s
     0     0 -339.72780    0 2288 -361.01879 -339.72780  5.90%     - 13089s
     0     0 -339.74719    0 2290 -361.01879 -339.74719  5.89%     - 13098s
     0     0 -339.74793    0 2293 -361.01879 -339.74793  5.89%     - 13104s
     0     0 -339.94853    0 2283 -361.01879 -339.94853  5.84%     - 13129s
     0     0 -339.97442    0 2291 -361.01879 -339.97442  5.83%     - 13220s
     0     0 -339.98368    0 2299 -361.01879 -339.98368  5.83%     - 13229s
     0     0 -339.98441    0 2296 -361.01879 -339.98441  5.83%     - 13235s
     0     0 -340.07131    0 2289 -361.01879 -340.07131  5.80%     - 13265s
     0     0 -340.09408    0 2283 -361.01879 -340.09408  5.80%     - 13363s
     0     0 -340.10181    0 2294 -361.01879 -340.10181  5.79%     - 13373s
     0     0 -340.10381    0 2294 -361.01879 -340.10381  5.79%     - 13383s
     0     0 -340.11129    0 2294 -361.01879 -340.11129  5.79%     - 13405s
     0     0 -340.11129    0 2268 -361.01879 -340.11129  5.79%     - 13516s
     0     2 -340.11267    0 2263 -361.01879 -340.11267  5.79%     - 13753s
     1     3 -341.08706    1 1099 -361.01879 -340.11267  5.79%  3654 13771s
     2     4 -342.54071    2  849 -361.01879 -340.11267  5.79%  2204 13786s
     3     5 -342.71072    3  760 -361.01879 -340.11267  5.79%  1638 13791s
     4     6 -344.79228    4  755 -361.01879 -340.11267  5.79%  1442 13802s
     5     7 -345.17390    4  777 -361.01879 -340.11267  5.79%  1330 13817s
     6     8 -346.35345    5  746 -361.01879 -340.11267  5.79%  1128 13821s
     7     9 -347.49335    5  759 -361.01879 -340.11267  5.79%  1017 13826s
     9    11 -349.99617    6  731 -361.01879 -340.11267  5.79%  1013 13842s
    10    12 -352.59811    7  720 -361.01879 -340.11267  5.79%  1010 13854s
    11    13 -359.36316    7  625 -361.01879 -340.11267  5.79%  1322 13887s
    13    11     cutoff    8      -361.01879 -340.11267  5.79%  1135 13890s
    15    13 -354.67967    9  538 -361.01879 -340.11267  5.79%   996 13895s
    19    15     cutoff   12      -361.01879 -340.11267  5.79%   818 13901s
    20    16 -355.23574   13  468 -361.01879 -340.11267  5.79%   793 13905s
    22    18 -356.27024   15  450 -361.01879 -340.11267  5.79%   751 13912s
    23    19 -357.02914   15  456 -361.01879 -340.11267  5.79%   740 13918s
    24    20 -356.33529   16  432 -361.01879 -340.11267  5.79%   713 13920s
    27    19     cutoff   17      -361.01879 -340.11267  5.79%   664 13925s
    29    19     cutoff   18      -361.01879 -340.11267  5.79%   632 13930s
    32    20 -356.87649   20  448 -361.01879 -340.11267  5.79%   582 13935s
    35    21 -358.45153   22  444 -361.01879 -340.11267  5.79%   549 13941s
    36    22 -359.97801   23  360 -361.01879 -340.11267  5.79%   537 13945s
    39    23     cutoff   24      -361.01879 -340.11267  5.79%   503 13950s
    41    25 -360.41167   26  426 -361.01879 -340.11267  5.79%   484 13956s
    44    26 -360.75859   28  424 -361.01879 -340.11267  5.79%   453 13960s
    48    24 -341.56661    1 2456 -361.01879 -341.09703  5.52%   522 13996s
    49    25 -341.97836    2 2403 -361.01879 -341.09703  5.52%   629 14036s
    50    26 -342.80906    3 2457 -361.01879 -341.09703  5.52%   640 14048s
    51    27 -342.83439    4 2399 -361.01879 -341.09703  5.52%   633 14052s
    52    28 -343.32478    5 2431 -361.01879 -341.09703  5.52%   644 14064s
    53    29 -347.65448    5 1113 -361.01879 -341.09703  5.52%  1118 14414s
    54    28     cutoff    6      -361.01879 -341.09703  5.52%  1270 14542s
    55    29 -358.51455    6 1145 -361.01879 -341.09703  5.52%  4193 19027s
    56    30 -359.38206    7  787 -361.01879 -341.09703  5.52%  4434 19278s
    57    29     cutoff    8      -361.01879 -341.09703  5.52%  6088 21899s
    58    28     cutoff    8      -361.01879 -341.09703  5.52%  7297 23883s
    59    29 -359.85539    7  863 -361.01879 -341.09703  5.52%  7666 24525s
    60    28     cutoff    8      -361.01879 -341.09703  5.52%  8398 25791s
    61    27     cutoff    8      -361.01879 -341.09703  5.52%  9353 27370s
    62    28 -342.34656    2 1015 -361.01879 -341.57035  5.39%  9366 27511s
    63    29 -343.24602    3  835 -361.01879 -341.57035  5.39%  9474 27770s
    64    30 -345.50104    4  819 -361.01879 -341.57035  5.39% 10201 29130s
    65    31 -346.14285    4  809 -361.01879 -341.57035  5.39% 10866 30466s
    66    32 -347.75606    5  788 -361.01879 -341.57035  5.39% 11890 32661s
    67    33 -348.79684    6  769 -361.01879 -341.57035  5.39% 11767 32735s
    68    34 -350.83676    7  762 -361.01879 -341.57035  5.39% 11671 32822s
    69    35 -352.17936    8  743 -361.01879 -341.57035  5.39% 11537 32861s
    70    36 -352.43956    9  544 -361.01879 -341.57035  5.39% 11380 32870s
    71    37 -352.95995   10  511 -361.01879 -341.57035  5.39% 11297 32961s
    72    38 -357.33090   11  296 -361.01879 -341.57035  5.39% 11211 33022s
    74    38     cutoff   12      -361.01879 -341.57035  5.39% 11791 34793s
    75    39 -357.85129   13  286 -361.01879 -341.57035  5.39% 11662 34815s
    76    38     cutoff   13      -361.01879 -341.57035  5.39% 12379 36694s
    77    39 -357.85129   14  260 -361.01879 -341.57035  5.39% 12219 36696s
    79    41 -358.37168   16  247 -361.01879 -341.57035  5.39% 11921 36712s
    80    40     cutoff   16      -361.01879 -341.57035  5.39% 12368 37858s
    81    41 -358.89207   17  236 -361.01879 -341.57035  5.39% 12241 37878s
    82    40     cutoff   17      -361.01879 -341.57035  5.39% 12102 37887s
    83    41 -359.41246   18  235 -361.01879 -341.57035  5.39% 11967 37900s
    84    40     cutoff   18      -361.01879 -341.57035  5.39% 12043 38278s
    85    41 -359.93285   19  232 -361.01879 -341.57035  5.39% 11927 38301s
    86    40     cutoff   19      -361.01879 -341.57035  5.39% 12028 38692s
    87    41 -360.19304   20  203 -361.01879 -341.57035  5.39% 11896 38700s
    88    40     cutoff   20      -361.01879 -341.57035  5.39% 11994 39103s
    89    41 -360.71343   21  186 -361.01879 -341.57035  5.39% 11878 39128s
    90    40     cutoff   21      -361.01879 -341.57035  5.39% 11756 39141s
    91    39     cutoff   22      -361.01879 -341.57035  5.39% 11631 39149s
    93    39 -346.41731    2 1167 -361.01879 -342.02285  5.26% 11889 40037s
    94    40 -360.83511    3  776 -361.01879 -342.02285  5.26% 14386 46901s
    95    39     cutoff    4      -361.01879 -342.02285  5.26% 14272 46946s
    96    38     cutoff    4      -361.01879 -342.02285  5.26% 14930 48787s
    97    39 -356.66000    3 1170 -361.01879 -342.02285  5.26% 16491 53246s
    98    40 -356.98119    4  947 -361.01879 -342.02285  5.26% 16529 53557s
    99    41 -357.96230    5  818 -361.01879 -342.02285  5.26% 16696 54198s
   100    40     cutoff    6      -361.01879 -342.02285  5.26% 17098 55520s
   101    39     cutoff    6      -361.01879 -342.02285  5.26% 18074 58840s
   102    40 -358.16383    5  809 -361.01879 -342.02285  5.26% 18243 59713s
   103    39     cutoff    6      -361.01879 -342.02285  5.26% 18774 61579s
   104    38     cutoff    6      -361.01879 -342.02285  5.26% 20328 67979s
   105    39 -360.69589    4 1142 -361.01879 -342.02285  5.26% 20685 69595s
   106    38     cutoff    5      -361.01879 -342.02285  5.26% 20519 69637s
   107    37     cutoff    5      -361.01879 -342.02285  5.26% 20576 70266s
   108    38 -347.84453    3 2450 -361.01879 -342.36568  5.17% 20939 71986s
   109    37     cutoff    4      -361.01879 -342.36568  5.17% 23689 85040s

Cutting planes:
  Gomory: 1
  Zero half: 890

Explored 110 nodes (2894780 simplex iterations) in 86400.90 seconds
Thread count was 1 (of 80 available processors)

Solution count 3: -361.019 -364.141 -11934.2 

Time limit reached
Best objective -3.610187853062e+02, best bound -3.423656769778e+02, gap 5.1668%
